32      2       
17      20      
0       0       0       3       2       3       4       
5       0       5       2       7       8       
7       7       0       2       5       6       
6       8       0       2       13      25      
9       9       0       1       11      
8       4       0       2       12      16      
9       4       0       3       9       10      30      
9       0       7       1       27      
7       4       0       2       11      24      
6       0       8       3       19      20      21      
1       0       6       3       19      23      27      
7       5       0       2       14      15      
8       8       0       2       17      26      
10      0       7       2       20      27      
5       0       3       1       18      
5       0       10      1       29      
3       0       7       1       31      
6       0       10      1       29      
8       0       2       2       22      25      
2       0       2       1       24      
7       0       9       1       25      
10      4       0       1       28      
6       0       8       1       26      
8       0       9       1       29      
2       0       1       1       28      
8       6       0       1       28      
7       0       6       1       31      
4       3       0       1       31      
6       0       4       1       32      
1       5       0       1       32      
10      7       0       1       32      
0       0       0       0       